(set-logic QF_BV)
(declare-fun _substvar_1585_ () (_ BitVec 32))
(declare-fun _substvar_1069_ () (_ BitVec 32))
(declare-fun _substvar_1561_ () (_ BitVec 32))
(declare-fun _substvar_1650_ () Bool)
(declare-fun _substvar_1545_ () (_ BitVec 32))
(declare-fun _substvar_1612_ () (_ BitVec 8))
(declare-fun _substvar_1647_ () Bool)
(declare-fun _substvar_1579_ () (_ BitVec 32))
(assert (let ((?v_57 (bvor (bvshl _substvar_1545_ _substvar_1069_) ((_ zero_extend 24) _substvar_1612_)))) (and true true (bvult _substvar_1561_ ?v_57) true true true true true true true true true true true true true true true true true true true true true true true true true true true true true true true true true true true true true true true true true true true true true true true true true true true true true true true true true true true true true true true true true true true true true _substvar_1647_ true true true true true true true true true true true true true true true true true true true true true true true true true true true true true true true true true true true true true true true true true true true true true true true true true true true true _substvar_1650_ (bvule ?v_57 _substvar_1579_) true true true true (bvult ?v_57 _substvar_1561_) (bvule _substvar_1561_ _substvar_1585_) true true true true true true true true true true true true true true true)))
(check-sat)
(exit)
